p cnf 314 876
r 0.5 1 2 3 4 5 6 7 8 9 10 0
e 11 12 13 14 15 16 17 18 19 20 21 22 23 24 25 26 27 28 29 30 31 32 33 34 35 36 37 38 39 40 41 42 43 44 45 46 47 48 49 50 51 52 53 54 55 56 57 58 59 60 61 62 63 64 65 66 67 68 69 70 71 72 73 74 75 76 77 78 79 80 81 82 83 84 85 86 87 88 89 90 91 92 93 94 95 96 97 98 99 100 101 102 103 104 105 106 107 108 109 110 111 112 113 114 115 116 117 118 119 120 121 122 123 124 125 126 127 128 129 130 131 132 133 134 135 136 137 138 139 140 141 142 143 144 145 146 147 148 149 150 151 152 153 154 155 156 157 158 159 160 161 162 163 164 165 166 167 168 169 170 171 172 173 174 175 176 177 178 179 180 181 182 183 184 185 186 187 188 189 190 191 192 193 194 195 196 197 198 199 200 201 202 203 204 205 206 207 208 209 210 211 212 213 214 215 216 217 218 219 220 221 222 223 224 225 226 227 228 229 230 231 232 233 234 235 236 237 238 239 240 241 242 243 244 245 246 247 248 249 250 251 252 253 254 255 256 257 258 259 260 261 262 263 264 265 266 267 268 269 270 271 272 273 274 275 276 277 278 279 280 281 282 283 284 285 286 287 288 289 290 291 292 293 294 295 296 297 298 299 300 301 302 303 304 305 306 307 308 309 310 311 312 313 314 0
-314 -11 1 0
-313 -12 2 0
-312 -13 3 0
-311 -14 4 0
-310 -15 5 0
-309 -16 6 0
-308 -17 7 0
-307 -18 8 0
-306 -19 9 0
-305 -20 10 0
-304 1 0
-304 -11 0
-303 11 0
-303 -1 0
-302 2 0
-302 -12 0
-301 12 0
-301 -2 0
-300 3 0
-300 -13 0
-299 13 0
-299 -3 0
-298 4 0
-298 -14 0
-297 14 0
-297 -4 0
-296 5 0
-296 -15 0
-295 15 0
-295 -5 0
-294 6 0
-294 -16 0
-293 16 0
-293 -6 0
-292 7 0
-292 -17 0
-291 17 0
-291 -7 0
-290 8 0
-290 -18 0
-289 18 0
-289 -8 0
-288 9 0
-288 -19 0
-287 19 0
-287 -9 0
-286 10 0
-286 -20 0
-285 20 0
-285 -10 0
-284 304 303 302 301 300 299 298 297 296 295 294 293 292 291 290 289 288 287 286 285 0
-283 7 0
-283 9 0
-283 5 0
-283 -10 0
-282 7 0
-282 3 0
-282 9 0
-282 6 0
-282 -10 0
-281 5 0
-281 2 0
-281 -10 0
-280 4 0
-280 5 0
-280 7 0
-280 8 0
-280 -10 0
-279 8 0
-279 9 0
-279 3 0
-279 -10 0
-278 2 0
-278 3 0
-278 1 0
-278 -10 0
-277 6 0
-277 3 0
-277 7 0
-277 2 0
-277 -10 0
-276 2 0
-276 1 0
-276 5 0
-276 3 0
-276 -10 0
-275 9 0
-275 2 0
-275 8 0
-275 5 0
-275 -10 0
-274 9 0
-274 2 0
-274 5 0
-274 7 0
-274 -10 0
-273 9 0
-273 7 0
-273 2 0
-273 -4 0
-272 3 0
-272 6 0
-272 10 0
-272 -4 0
-271 10 0
-271 3 0
-271 6 0
-271 -4 0
-270 9 0
-270 10 0
-270 5 0
-270 -4 0
-269 2 0
-269 6 0
-269 3 0
-269 9 0
-269 -4 0
-268 1 0
-268 9 0
-268 3 0
-268 5 0
-268 -4 0
-267 3 0
-267 8 0
-267 7 0
-267 1 0
-267 -4 0
-266 5 0
-266 2 0
-266 9 0
-266 8 0
-266 -4 0
-265 9 0
-265 3 0
-265 1 0
-265 10 0
-265 -4 0
-264 5 0
-264 3 0
-264 7 0
-264 6 0
-264 -4 0
-263 5 0
-263 8 0
-263 6 0
-263 -1 0
-262 2 0
-262 10 0
-262 4 0
-262 -1 0
-261 4 0
-261 2 0
-261 10 0
-261 -1 0
-260 4 0
-260 7 0
-260 2 0
-260 8 0
-260 -1 0
-259 10 0
-259 6 0
-259 -1 0
-258 4 0
-258 3 0
-258 7 0
-258 2 0
-258 -1 0
-257 7 0
-257 6 0
-257 2 0
-257 8 0
-257 -1 0
-256 9 0
-256 6 0
-256 8 0
-256 -1 0
-255 10 0
-255 6 0
-255 9 0
-255 4 0
-255 -1 0
-254 7 0
-254 5 0
-254 2 0
-254 9 0
-254 -1 0
-253 5 0
-253 10 0
-253 1 0
-253 2 0
-253 -6 0
-252 2 0
-252 1 0
-252 10 0
-252 -6 0
-251 5 0
-251 3 0
-251 1 0
-251 -6 0
-250 4 0
-250 10 0
-250 9 0
-250 5 0
-250 -6 0
-249 5 0
-249 2 0
-249 1 0
-249 4 0
-249 -6 0
-248 2 0
-248 1 0
-248 7 0
-248 -6 0
-247 2 0
-247 10 0
-247 7 0
-247 -6 0
-246 10 0
-246 8 0
-246 5 0
-246 -6 0
-245 4 0
-245 2 0
-245 10 0
-245 8 0
-245 -6 0
-244 1 0
-244 3 0
-244 8 0
-244 -6 0
-243 8 0
-243 2 0
-243 9 0
-243 4 0
-243 -3 0
-242 1 0
-242 7 0
-242 8 0
-242 2 0
-242 -3 0
-241 9 0
-241 6 0
-241 5 0
-241 8 0
-241 -3 0
-240 10 0
-240 6 0
-240 2 0
-240 -3 0
-239 6 0
-239 4 0
-239 7 0
-239 -3 0
-238 4 0
-238 6 0
-238 7 0
-238 10 0
-238 -3 0
-237 7 0
-237 6 0
-237 -3 0
-236 5 0
-236 4 0
-236 1 0
-236 -3 0
-235 10 0
-235 2 0
-235 8 0
-235 6 0
-235 -3 0
-234 1 0
-234 10 0
-234 7 0
-234 9 0
-234 -3 0
-233 10 0
-233 8 0
-233 3 0
-233 1 0
-233 -2 0
-232 10 0
-232 8 0
-232 7 0
-232 -2 0
-231 9 0
-231 1 0
-231 3 0
-231 7 0
-231 -2 0
-230 10 0
-230 9 0
-230 6 0
-230 -2 0
-229 7 0
-229 1 0
-229 4 0
-229 -2 0
-228 3 0
-228 4 0
-228 7 0
-228 -2 0
-227 3 0
-227 10 0
-227 1 0
-227 -2 0
-226 9 0
-226 7 0
-226 4 0
-226 -2 0
-225 4 0
-225 7 0
-225 9 0
-225 1 0
-225 -2 0
-224 9 0
-224 10 0
-224 7 0
-224 -2 0
-223 3 0
-223 5 0
-223 1 0
-223 10 0
-223 -7 0
-222 4 0
-222 8 0
-222 6 0
-222 2 0
-222 -7 0
-221 9 0
-221 10 0
-221 2 0
-221 -7 0
-220 4 0
-220 10 0
-220 6 0
-220 -7 0
-219 6 0
-219 9 0
-219 10 0
-219 2 0
-219 -7 0
-218 8 0
-218 2 0
-218 9 0
-218 5 0
-218 -7 0
-217 5 0
-217 3 0
-217 2 0
-217 -7 0
-216 8 0
-216 2 0
-216 5 0
-216 10 0
-216 -7 0
-215 5 0
-215 3 0
-215 -7 0
-214 2 0
-214 5 0
-214 6 0
-214 -7 0
-213 10 0
-213 8 0
-213 9 0
-213 -5 0
-212 3 0
-212 10 0
-212 7 0
-212 1 0
-212 -5 0
-211 4 0
-211 7 0
-211 3 0
-211 -5 0
-210 9 0
-210 2 0
-210 10 0
-210 -5 0
-209 8 0
-209 9 0
-209 1 0
-209 6 0
-209 -5 0
-208 3 0
-208 9 0
-208 10 0
-208 4 0
-208 -5 0
-207 7 0
-207 2 0
-207 8 0
-207 -5 0
-206 2 0
-206 10 0
-206 9 0
-206 -5 0
-205 1 0
-205 3 0
-205 9 0
-205 -5 0
-204 8 0
-204 10 0
-204 2 0
-204 1 0
-204 -5 0
-203 10 0
-203 1 0
-203 3 0
-203 4 0
-203 -8 0
-202 10 0
-202 2 0
-202 3 0
-202 4 0
-202 -8 0
-201 3 0
-201 6 0
-201 7 0
-201 -8 0
-200 1 0
-200 7 0
-200 6 0
-200 -8 0
-199 5 0
-199 1 0
-199 3 0
-199 9 0
-199 -8 0
-198 10 0
-198 4 0
-198 7 0
-198 -8 0
-197 10 0
-197 9 0
-197 5 0
-197 2 0
-197 -8 0
-196 6 0
-196 9 0
-196 5 0
-196 10 0
-196 -8 0
-195 10 0
-195 2 0
-195 3 0
-195 -8 0
-194 1 0
-194 4 0
-194 10 0
-194 6 0
-194 -8 0
-193 4 0
-193 5 0
-193 7 0
-193 -9 0
-192 3 0
-192 10 0
-192 6 0
-192 2 0
-192 -9 0
-191 1 0
-191 6 0
-191 7 0
-191 -9 0
-190 5 0
-190 7 0
-190 10 0
-190 4 0
-190 -9 0
-189 5 0
-189 8 0
-189 6 0
-189 -9 0
-188 8 0
-188 10 0
-188 5 0
-188 3 0
-188 -9 0
-187 4 0
-187 2 0
-187 10 0
-187 3 0
-187 -9 0
-186 8 0
-186 3 0
-186 4 0
-186 7 0
-186 -9 0
-185 10 0
-185 5 0
-185 8 0
-185 6 0
-185 -9 0
-184 1 0
-184 4 0
-184 5 0
-184 -9 0
-183 -10 0
-183 -1 0
-183 -8 0
-182 -6 0
-182 -4 0
-182 -2 0
-181 -3 0
-181 -6 0
-181 -2 0
-180 -4 0
-180 -5 0
-180 -7 0
-180 -3 0
-179 -1 0
-179 -8 0
-178 -1 0
-178 -4 0
-178 -10 0
-178 -6 0
-177 -8 0
-177 -9 0
-177 -7 0
-177 -6 0
-176 -10 0
-176 -2 0
-176 -3 0
-176 -1 0
-175 -8 0
-175 -1 0
-175 -10 0
-175 -6 0
-174 -7 0
-174 -5 0
-174 -10 0
-173 -4 0
-173 -9 0
-173 -5 0
-173 -3 0
-172 -8 0
-172 -6 0
-172 -10 0
-171 -1 0
-171 -9 0
-171 -2 0
-171 -3 0
-170 -10 0
-170 -7 0
-170 -9 0
-170 -4 0
-169 -5 0
-169 -7 0
-169 -3 0
-168 -6 0
-168 -8 0
-168 -9 0
-167 -1 0
-167 -4 0
-167 -7 0
-167 -10 0
-166 -8 0
-166 -3 0
-166 -4 0
-166 -9 0
-165 -2 0
-165 -10 0
-165 -3 0
-164 -3 0
-164 -2 0
-164 -9 0
-164 -8 0
-163 -3 0
-163 -1 0
-163 -5 0
-162 -1 0
-162 -8 0
-162 -9 0
-161 -10 0
-161 -3 0
-161 -8 0
-161 -6 0
-160 -3 0
-160 -5 0
-160 -9 0
-160 -7 0
-159 -8 0
-159 -5 0
-159 -9 0
-158 -1 0
-158 -10 0
-158 -9 0
-157 -10 0
-157 -3 0
-157 -6 0
-157 -7 0
-156 -1 0
-156 -3 0
-156 -8 0
-155 -9 0
-155 -5 0
-155 -2 0
-155 -6 0
-154 -4 0
-154 -2 0
-154 -6 0
-153 -17 -19 -15 20 0
-152 -17 -13 -19 -16 20 0
-151 -15 -12 20 0
-150 -14 -15 -17 -18 20 0
-149 -18 -19 -13 20 0
-148 -12 -13 -11 20 0
-147 -16 -13 -17 -12 20 0
-146 -12 -11 -15 -13 20 0
-145 -19 -12 -18 -15 20 0
-144 -19 -12 -15 -17 20 0
-143 -19 -17 -12 14 0
-142 -13 -16 -20 14 0
-141 -20 -13 -16 14 0
-140 -19 -20 -15 14 0
-139 -12 -16 -13 -19 14 0
-138 -11 -19 -13 -15 14 0
-137 -13 -18 -17 -11 14 0
-136 -15 -12 -19 -18 14 0
-135 -19 -13 -11 -20 14 0
-134 -15 -13 -17 -16 14 0
-133 -15 -18 -16 11 0
-132 -12 -20 -14 11 0
-131 -14 -12 -20 11 0
-130 -14 -17 -12 -18 11 0
-129 -20 -16 11 0
-128 -14 -13 -17 -12 11 0
-127 -17 -16 -12 -18 11 0
-126 -19 -16 -18 11 0
-125 -20 -16 -19 -14 11 0
-124 -17 -15 -12 -19 11 0
-123 -15 -20 -11 -12 16 0
-122 -12 -11 -20 16 0
-121 -15 -13 -11 16 0
-120 -14 -20 -19 -15 16 0
-119 -15 -12 -11 -14 16 0
-118 -12 -11 -17 16 0
-117 -12 -20 -17 16 0
-116 -20 -18 -15 16 0
-115 -14 -12 -20 -18 16 0
-114 -11 -13 -18 16 0
-113 -18 -12 -19 -14 13 0
-112 -11 -17 -18 -12 13 0
-111 -19 -16 -15 -18 13 0
-110 -20 -16 -12 13 0
-109 -16 -14 -17 13 0
-108 -14 -16 -17 -20 13 0
-107 -17 -16 13 0
-106 -15 -14 -11 13 0
-105 -20 -12 -18 -16 13 0
-104 -11 -20 -17 -19 13 0
-103 -20 -18 -13 -11 12 0
-102 -20 -18 -17 12 0
-101 -19 -11 -13 -17 12 0
-100 -20 -19 -16 12 0
-99 -17 -11 -14 12 0
-98 -13 -14 -17 12 0
-97 -13 -20 -11 12 0
-96 -19 -17 -14 12 0
-95 -14 -17 -19 -11 12 0
-94 -19 -20 -17 12 0
-93 -13 -15 -11 -20 17 0
-92 -14 -18 -16 -12 17 0
-91 -19 -20 -12 17 0
-90 -14 -20 -16 17 0
-89 -16 -19 -20 -12 17 0
-88 -18 -12 -19 -15 17 0
-87 -15 -13 -12 17 0
-86 -18 -12 -15 -20 17 0
-85 -15 -13 17 0
-84 -12 -15 -16 17 0
-83 -20 -18 -19 15 0
-82 -13 -20 -17 -11 15 0
-81 -14 -17 -13 15 0
-80 -19 -12 -20 15 0
-79 -18 -19 -11 -16 15 0
-78 -13 -19 -20 -14 15 0
-77 -17 -12 -18 15 0
-76 -12 -20 -19 15 0
-75 -11 -13 -19 15 0
-74 -18 -20 -12 -11 15 0
-73 -20 -11 -13 -14 18 0
-72 -20 -12 -13 -14 18 0
-71 -13 -16 -17 18 0
-70 -11 -17 -16 18 0
-69 -15 -11 -13 -19 18 0
-68 -20 -14 -17 18 0
-67 -20 -19 -15 -12 18 0
-66 -16 -19 -15 -20 18 0
-65 -20 -12 -13 18 0
-64 -11 -14 -20 -16 18 0
-63 -14 -15 -17 19 0
-62 -13 -20 -16 -12 19 0
-61 -11 -16 -17 19 0
-60 -15 -17 -20 -14 19 0
-59 -15 -18 -16 19 0
-58 -18 -20 -15 -13 19 0
-57 -14 -12 -20 -13 19 0
-56 -18 -13 -14 -17 19 0
-55 -20 -15 -18 -16 19 0
-54 -11 -14 -15 19 0
-53 20 11 18 0
-52 16 14 12 0
-51 13 16 12 0
-50 14 15 17 13 0
-49 11 18 0
-48 11 14 20 16 0
-47 18 19 17 16 0
-46 20 12 13 11 0
-45 18 11 20 16 0
-44 17 15 20 0
-43 14 19 15 13 0
-42 18 16 20 0
-41 11 19 12 13 0
-40 20 17 19 14 0
-39 15 17 13 0
-38 16 18 19 0
-37 11 14 17 20 0
-36 18 13 14 19 0
-35 12 20 13 0
-34 13 12 19 18 0
-33 13 11 15 0
-32 11 18 19 0
-31 20 13 18 16 0
-30 13 15 19 17 0
-29 18 15 19 0
-28 11 20 19 0
-27 20 13 16 17 0
-26 11 13 18 0
-25 19 15 12 16 0
-24 14 12 16 0
-23 153 0
-23 152 0
-23 151 0
-23 150 0
-23 149 0
-23 148 0
-23 147 0
-23 146 0
-23 145 0
-23 144 0
-23 143 0
-23 142 0
-23 141 0
-23 140 0
-23 139 0
-23 138 0
-23 137 0
-23 136 0
-23 135 0
-23 134 0
-23 133 0
-23 132 0
-23 131 0
-23 130 0
-23 129 0
-23 128 0
-23 127 0
-23 126 0
-23 125 0
-23 124 0
-23 123 0
-23 122 0
-23 121 0
-23 120 0
-23 119 0
-23 118 0
-23 117 0
-23 116 0
-23 115 0
-23 114 0
-23 113 0
-23 112 0
-23 111 0
-23 110 0
-23 109 0
-23 108 0
-23 107 0
-23 106 0
-23 105 0
-23 104 0
-23 103 0
-23 102 0
-23 101 0
-23 100 0
-23 99 0
-23 98 0
-23 97 0
-23 96 0
-23 95 0
-23 94 0
-23 93 0
-23 92 0
-23 91 0
-23 90 0
-23 89 0
-23 88 0
-23 87 0
-23 86 0
-23 85 0
-23 84 0
-23 83 0
-23 82 0
-23 81 0
-23 80 0
-23 79 0
-23 78 0
-23 77 0
-23 76 0
-23 75 0
-23 74 0
-23 73 0
-23 72 0
-23 71 0
-23 70 0
-23 69 0
-23 68 0
-23 67 0
-23 66 0
-23 65 0
-23 64 0
-23 63 0
-23 62 0
-23 61 0
-23 60 0
-23 59 0
-23 58 0
-23 57 0
-23 56 0
-23 55 0
-23 54 0
-23 53 0
-23 52 0
-23 51 0
-23 50 0
-23 49 0
-23 48 0
-23 47 0
-23 46 0
-23 45 0
-23 44 0
-23 43 0
-23 42 0
-23 41 0
-23 40 0
-23 39 0
-23 38 0
-23 37 0
-23 36 0
-23 35 0
-23 34 0
-23 33 0
-23 32 0
-23 31 0
-23 30 0
-23 29 0
-23 28 0
-23 27 0
-23 26 0
-23 25 0
-23 24 0
-22 283 282 281 280 279 278 277 276 275 274 273 272 271 270 269 268 267 266 265 264 263 262 261 260 259 258 257 256 255 254 253 252 251 250 249 248 247 246 245 244 243 242 241 240 239 238 237 236 235 234 233 232 231 230 229 228 227 226 225 224 223 222 221 220 219 218 217 216 215 214 213 212 211 210 209 208 207 206 205 204 203 202 201 200 199 198 197 196 195 194 193 192 191 190 189 188 187 186 185 184 183 182 181 180 179 178 177 176 175 174 173 172 171 170 169 168 167 166 165 164 163 162 161 160 159 158 157 156 155 154 23 0
-21 314 0
-21 313 0
-21 312 0
-21 311 0
-21 310 0
-21 309 0
-21 308 0
-21 307 0
-21 306 0
-21 305 0
-21 284 0
-21 22 0
21 -10 -4 0

